\Problem name: compact

Minimize
OBJROW: C
Subject To
ord(0,1):  x(0,0) - x(0,1) >= 5
ord(0,2):  - x(0,0) + x(0,2) >= 3
ord(1,1):  x(1,0) - x(1,2) >= 1
ord(1,2):  - x(1,0) + x(1,1) >= 5
ord(2,1):  x(2,0) - x(2,2) >= 5
ord(2,2):  - x(2,0) + x(2,1) >= 9
ord(3,1):  x(3,0) - x(3,1) >= 4
ord(3,2):  - x(3,0) + x(3,2) >= 2
triangle2(0,1,0):  y(0,1,0) + y(1,0,0) = 1
triangle2(0,1,1):  y(0,1,1) + y(1,0,1) = 1
triangle2(0,1,2):  y(0,1,2) + y(1,0,2) = 1
triangle2(0,2,0):  y(0,2,0) + y(2,0,0) = 1
triangle2(0,2,1):  y(0,2,1) + y(2,0,1) = 1
triangle2(0,2,2):  y(0,2,2) + y(2,0,2) = 1
triangle2(0,3,0):  y(0,3,0) + y(3,0,0) = 1
triangle2(0,3,1):  y(0,3,1) + y(3,0,1) = 1
triangle2(0,3,2):  y(0,3,2) + y(3,0,2) = 1
triangle2(1,2,0):  y(1,2,0) + y(2,1,0) = 1
triangle2(1,2,1):  y(1,2,1) + y(2,1,1) = 1
triangle2(1,2,2):  y(1,2,2) + y(2,1,2) = 1
triangle2(1,3,0):  y(1,3,0) + y(3,1,0) = 1
triangle2(1,3,1):  y(1,3,1) + y(3,1,1) = 1
triangle2(1,3,2):  y(1,3,2) + y(3,1,2) = 1
triangle2(2,3,0):  y(2,3,0) + y(3,2,0) = 1
triangle2(2,3,1):  y(2,3,1) + y(3,2,1) = 1
triangle2(2,3,2):  y(2,3,2) + y(3,2,2) = 1
MCLinV(0,1,0):  x(0,0) - v(0,1,0) - x(1,0) = 5
MCLinV(1,0,0):  - x(0,0) - v(1,0,0) + x(1,0) = 3
MCLin1(0,1,0):  u(0,1,0) >= -0
MCLin2(0,1,0):  -41 y(1,0,0) - u(0,1,0) <= -0
MCLin3(0,1,0):  38 y(1,0,0) + v(0,1,0) - u(0,1,0) <= 38
MCLin4(0,1,0):  38 y(1,0,0) - u(0,1,0) >= -0
MCLin5(0,1,0):  -41 y(1,0,0) + v(0,1,0) - u(0,1,0) >= -41
MCLin6(1,0,0):  u(1,0,0) >= -0
MCLin7(1,0,0):  -46 y(0,1,0) - u(1,0,0) <= -0
MCLin8(1,0,0):  33 y(0,1,0) + v(1,0,0) - u(1,0,0) <= 33
MCLin9(1,0,0):  33 y(0,1,0) - u(1,0,0) >= -0
MCLin10(1,0,0):  -46 y(0,1,0) + v(1,0,0) - u(1,0,0) >= -46
MCLinV(0,1,1):  x(0,1) - v(0,1,1) - x(1,1) = 8
MCLinV(1,0,1):  - x(0,1) - v(1,0,1) + x(1,1) = 5
MCLin1(0,1,1):  u(0,1,1) >= -0
MCLin2(0,1,1):  -54 y(1,0,1) - u(0,1,1) <= -0
MCLin3(0,1,1):  25 y(1,0,1) + v(0,1,1) - u(0,1,1) <= 25
MCLin4(0,1,1):  25 y(1,0,1) - u(0,1,1) >= -0
MCLin5(0,1,1):  -54 y(1,0,1) + v(0,1,1) - u(0,1,1) >= -54
MCLin6(1,0,1):  u(1,0,1) >= -0
MCLin7(1,0,1):  -38 y(0,1,1) - u(1,0,1) <= -0
MCLin8(1,0,1):  41 y(0,1,1) + v(1,0,1) - u(1,0,1) <= 41
MCLin9(1,0,1):  41 y(0,1,1) - u(1,0,1) >= -0
MCLin10(1,0,1):  -38 y(0,1,1) + v(1,0,1) - u(1,0,1) >= -38
MCLinV(0,1,2):  x(0,2) - v(0,1,2) - x(1,2) = 1
MCLinV(1,0,2):  - x(0,2) - v(1,0,2) + x(1,2) = 7
MCLin1(0,1,2):  u(0,1,2) >= -0
MCLin2(0,1,2):  -33 y(1,0,2) - u(0,1,2) <= -0
MCLin3(0,1,2):  46 y(1,0,2) + v(0,1,2) - u(0,1,2) <= 46
MCLin4(0,1,2):  46 y(1,0,2) - u(0,1,2) >= -0
MCLin5(0,1,2):  -33 y(1,0,2) + v(0,1,2) - u(0,1,2) >= -33
MCLin6(1,0,2):  u(1,0,2) >= -0
MCLin7(1,0,2):  -54 y(0,1,2) - u(1,0,2) <= -0
MCLin8(1,0,2):  25 y(0,1,2) + v(1,0,2) - u(1,0,2) <= 25
MCLin9(1,0,2):  25 y(0,1,2) - u(1,0,2) >= -0
MCLin10(1,0,2):  -54 y(0,1,2) + v(1,0,2) - u(1,0,2) >= -54
MCLinV(0,2,0):  x(0,0) - v(0,2,0) - x(2,0) = 9
MCLinV(2,0,0):  - x(0,0) - v(2,0,0) + x(2,0) = 3
MCLin1(0,2,0):  u(0,2,0) >= -0
MCLin2(0,2,0):  -48 y(2,0,0) - u(0,2,0) <= -0
MCLin3(0,2,0):  30 y(2,0,0) + v(0,2,0) - u(0,2,0) <= 30
MCLin4(0,2,0):  30 y(2,0,0) - u(0,2,0) >= -0
MCLin5(0,2,0):  -48 y(2,0,0) + v(0,2,0) - u(0,2,0) >= -48
MCLin6(2,0,0):  u(2,0,0) >= -0
MCLin7(2,0,0):  -42 y(0,2,0) - u(2,0,0) <= -0
MCLin8(2,0,0):  36 y(0,2,0) + v(2,0,0) - u(2,0,0) <= 36
MCLin9(2,0,0):  36 y(0,2,0) - u(2,0,0) >= -0
MCLin10(2,0,0):  -42 y(0,2,0) + v(2,0,0) - u(2,0,0) >= -42
MCLinV(0,2,1):  x(0,1) - v(0,2,1) - x(2,1) = 1
MCLinV(2,0,1):  - x(0,1) - v(2,0,1) + x(2,1) = 5
MCLin1(0,2,1):  u(0,2,1) >= -0
MCLin2(0,2,1):  -54 y(2,0,1) - u(0,2,1) <= -0
MCLin3(0,2,1):  24 y(2,0,1) + v(0,2,1) - u(0,2,1) <= 24
MCLin4(0,2,1):  24 y(2,0,1) - u(0,2,1) >= -0
MCLin5(0,2,1):  -54 y(2,0,1) + v(0,2,1) - u(0,2,1) >= -54
MCLin6(2,0,1):  u(2,0,1) >= -0
MCLin7(2,0,1):  -30 y(0,2,1) - u(2,0,1) <= -0
MCLin8(2,0,1):  48 y(0,2,1) + v(2,0,1) - u(2,0,1) <= 48
MCLin9(2,0,1):  48 y(0,2,1) - u(2,0,1) >= -0
MCLin10(2,0,1):  -30 y(0,2,1) + v(2,0,1) - u(2,0,1) >= -30
MCLinV(0,2,2):  x(0,2) - v(0,2,2) - x(2,2) = 5
MCLinV(2,0,2):  - x(0,2) - v(2,0,2) + x(2,2) = 7
MCLin1(0,2,2):  u(0,2,2) >= -0
MCLin2(0,2,2):  -36 y(2,0,2) - u(0,2,2) <= -0
MCLin3(0,2,2):  42 y(2,0,2) + v(0,2,2) - u(0,2,2) <= 42
MCLin4(0,2,2):  42 y(2,0,2) - u(0,2,2) >= -0
MCLin5(0,2,2):  -36 y(2,0,2) + v(0,2,2) - u(0,2,2) >= -36
MCLin6(2,0,2):  u(2,0,2) >= -0
MCLin7(2,0,2):  -54 y(0,2,2) - u(2,0,2) <= -0
MCLin8(2,0,2):  24 y(0,2,2) + v(2,0,2) - u(2,0,2) <= 24
MCLin9(2,0,2):  24 y(0,2,2) - u(2,0,2) >= -0
MCLin10(2,0,2):  -54 y(0,2,2) + v(2,0,2) - u(2,0,2) >= -54
MCLinV(0,3,0):  x(0,0) - v(0,3,0) - x(3,0) = 2
MCLinV(3,0,0):  - x(0,0) - v(3,0,0) + x(3,0) = 3
MCLin1(0,3,0):  u(0,3,0) >= -0
MCLin2(0,3,0):  -45 y(3,0,0) - u(0,3,0) <= -0
MCLin3(0,3,0):  38 y(3,0,0) + v(0,3,0) - u(0,3,0) <= 38
MCLin4(0,3,0):  38 y(3,0,0) - u(0,3,0) >= -0
MCLin5(0,3,0):  -45 y(3,0,0) + v(0,3,0) - u(0,3,0) >= -45
MCLin6(3,0,0):  u(3,0,0) >= -0
MCLin7(3,0,0):  -43 y(0,3,0) - u(3,0,0) <= -0
MCLin8(3,0,0):  40 y(0,3,0) + v(3,0,0) - u(3,0,0) <= 40
MCLin9(3,0,0):  40 y(0,3,0) - u(3,0,0) >= -0
MCLin10(3,0,0):  -43 y(0,3,0) + v(3,0,0) - u(3,0,0) >= -43
MCLinV(0,3,1):  x(0,1) - v(0,3,1) - x(3,1) = 4
MCLinV(3,0,1):  - x(0,1) - v(3,0,1) + x(3,1) = 5
MCLin1(0,3,1):  u(0,3,1) >= -0
MCLin2(0,3,1):  -48 y(3,0,1) - u(0,3,1) <= -0
MCLin3(0,3,1):  35 y(3,0,1) + v(0,3,1) - u(0,3,1) <= 35
MCLin4(0,3,1):  35 y(3,0,1) - u(0,3,1) >= -0
MCLin5(0,3,1):  -48 y(3,0,1) + v(0,3,1) - u(0,3,1) >= -48
MCLin6(3,0,1):  u(3,0,1) >= -0
MCLin7(3,0,1):  -44 y(0,3,1) - u(3,0,1) <= -0
MCLin8(3,0,1):  39 y(0,3,1) + v(3,0,1) - u(3,0,1) <= 39
MCLin9(3,0,1):  39 y(0,3,1) - u(3,0,1) >= -0
MCLin10(3,0,1):  -44 y(0,3,1) + v(3,0,1) - u(3,0,1) >= -44
MCLinV(0,3,2):  x(0,2) - v(0,3,2) - x(3,2) = 4
MCLinV(3,0,2):  - x(0,2) - v(3,0,2) + x(3,2) = 7
MCLin1(0,3,2):  u(0,3,2) >= -0
MCLin2(0,3,2):  -46 y(3,0,2) - u(0,3,2) <= -0
MCLin3(0,3,2):  37 y(3,0,2) + v(0,3,2) - u(0,3,2) <= 37
MCLin4(0,3,2):  37 y(3,0,2) - u(0,3,2) >= -0
MCLin5(0,3,2):  -46 y(3,0,2) + v(0,3,2) - u(0,3,2) >= -46
MCLin6(3,0,2):  u(3,0,2) >= -0
MCLin7(3,0,2):  -48 y(0,3,2) - u(3,0,2) <= -0
MCLin8(3,0,2):  35 y(0,3,2) + v(3,0,2) - u(3,0,2) <= 35
MCLin9(3,0,2):  35 y(0,3,2) - u(3,0,2) >= -0
MCLin10(3,0,2):  -48 y(0,3,2) + v(3,0,2) - u(3,0,2) >= -48
MCLinV(1,2,0):  x(1,0) - v(1,2,0) - x(2,0) = 9
MCLinV(2,1,0):  - x(1,0) - v(2,1,0) + x(2,0) = 5
MCLin1(1,2,0):  u(1,2,0) >= -0
MCLin2(1,2,0):  -52 y(2,1,0) - u(1,2,0) <= -0
MCLin3(1,2,0):  27 y(2,1,0) + v(1,2,0) - u(1,2,0) <= 27
MCLin4(1,2,0):  27 y(2,1,0) - u(1,2,0) >= -0
MCLin5(1,2,0):  -52 y(2,1,0) + v(1,2,0) - u(1,2,0) >= -52
MCLin6(2,1,0):  u(2,1,0) >= -0
MCLin7(2,1,0):  -41 y(1,2,0) - u(2,1,0) <= -0
MCLin8(2,1,0):  38 y(1,2,0) + v(2,1,0) - u(2,1,0) <= 38
MCLin9(2,1,0):  38 y(1,2,0) - u(2,1,0) >= -0
MCLin10(2,1,0):  -41 y(1,2,0) + v(2,1,0) - u(2,1,0) >= -41
MCLinV(1,2,1):  x(1,1) - v(1,2,1) - x(2,1) = 1
MCLinV(2,1,1):  - x(1,1) - v(2,1,1) + x(2,1) = 8
MCLin1(1,2,1):  u(1,2,1) >= -0
MCLin2(1,2,1):  -48 y(2,1,1) - u(1,2,1) <= -0
MCLin3(1,2,1):  31 y(2,1,1) + v(1,2,1) - u(1,2,1) <= 31
MCLin4(1,2,1):  31 y(2,1,1) - u(1,2,1) >= -0
MCLin5(1,2,1):  -48 y(2,1,1) + v(1,2,1) - u(1,2,1) >= -48
MCLin6(2,1,1):  u(2,1,1) >= -0
MCLin7(2,1,1):  -40 y(1,2,1) - u(2,1,1) <= -0
MCLin8(2,1,1):  39 y(1,2,1) + v(2,1,1) - u(2,1,1) <= 39
MCLin9(2,1,1):  39 y(1,2,1) - u(2,1,1) >= -0
MCLin10(2,1,1):  -40 y(1,2,1) + v(2,1,1) - u(2,1,1) >= -40
MCLinV(1,2,2):  x(1,2) - v(1,2,2) - x(2,2) = 5
MCLinV(2,1,2):  - x(1,2) - v(2,1,2) + x(2,2) = 1
MCLin1(1,2,2):  u(1,2,2) >= -0
MCLin2(1,2,2):  -44 y(2,1,2) - u(1,2,2) <= -0
MCLin3(1,2,2):  35 y(2,1,2) + v(1,2,2) - u(1,2,2) <= 35
MCLin4(1,2,2):  35 y(2,1,2) - u(1,2,2) >= -0
MCLin5(1,2,2):  -44 y(2,1,2) + v(1,2,2) - u(1,2,2) >= -44
MCLin6(2,1,2):  u(2,1,2) >= -0
MCLin7(2,1,2):  -41 y(1,2,2) - u(2,1,2) <= -0
MCLin8(2,1,2):  38 y(1,2,2) + v(2,1,2) - u(2,1,2) <= 38
MCLin9(2,1,2):  38 y(1,2,2) - u(2,1,2) >= -0
MCLin10(2,1,2):  -41 y(1,2,2) + v(2,1,2) - u(2,1,2) >= -41
MCLinV(1,3,0):  x(1,0) - v(1,3,0) - x(3,0) = 2
MCLinV(3,1,0):  - x(1,0) - v(3,1,0) + x(3,0) = 5
MCLin1(1,3,0):  u(1,3,0) >= -0
MCLin2(1,3,0):  -49 y(3,1,0) - u(1,3,0) <= -0
MCLin3(1,3,0):  35 y(3,1,0) + v(1,3,0) - u(1,3,0) <= 35
MCLin4(1,3,0):  35 y(3,1,0) - u(1,3,0) >= -0
MCLin5(1,3,0):  -49 y(3,1,0) + v(1,3,0) - u(1,3,0) >= -49
MCLin6(3,1,0):  u(3,1,0) >= -0
MCLin7(3,1,0):  -42 y(1,3,0) - u(3,1,0) <= -0
MCLin8(3,1,0):  42 y(1,3,0) + v(3,1,0) - u(3,1,0) <= 42
MCLin9(3,1,0):  42 y(1,3,0) - u(3,1,0) >= -0
MCLin10(3,1,0):  -42 y(1,3,0) + v(3,1,0) - u(3,1,0) >= -42
MCLinV(1,3,1):  x(1,1) - v(1,3,1) - x(3,1) = 4
MCLinV(3,1,1):  - x(1,1) - v(3,1,1) + x(3,1) = 8
MCLin1(1,3,1):  u(1,3,1) >= -0
MCLin2(1,3,1):  -42 y(3,1,1) - u(1,3,1) <= -0
MCLin3(1,3,1):  42 y(3,1,1) + v(1,3,1) - u(1,3,1) <= 42
MCLin4(1,3,1):  42 y(3,1,1) - u(1,3,1) >= -0
MCLin5(1,3,1):  -42 y(3,1,1) + v(1,3,1) - u(1,3,1) >= -42
MCLin6(3,1,1):  u(3,1,1) >= -0
MCLin7(3,1,1):  -54 y(1,3,1) - u(3,1,1) <= -0
MCLin8(3,1,1):  30 y(1,3,1) + v(3,1,1) - u(3,1,1) <= 30
MCLin9(3,1,1):  30 y(1,3,1) - u(3,1,1) >= -0
MCLin10(3,1,1):  -54 y(1,3,1) + v(3,1,1) - u(3,1,1) >= -54
MCLinV(1,3,2):  x(1,2) - v(1,3,2) - x(3,2) = 4
MCLinV(3,1,2):  - x(1,2) - v(3,1,2) + x(3,2) = 1
MCLin1(1,3,2):  u(1,3,2) >= -0
MCLin2(1,3,2):  -54 y(3,1,2) - u(1,3,2) <= -0
MCLin3(1,3,2):  30 y(3,1,2) + v(1,3,2) - u(1,3,2) <= 30
MCLin4(1,3,2):  30 y(3,1,2) - u(1,3,2) >= -0
MCLin5(1,3,2):  -54 y(3,1,2) + v(1,3,2) - u(1,3,2) >= -54
MCLin6(3,1,2):  u(3,1,2) >= -0
MCLin7(3,1,2):  -35 y(1,3,2) - u(3,1,2) <= -0
MCLin8(3,1,2):  49 y(1,3,2) + v(3,1,2) - u(3,1,2) <= 49
MCLin9(3,1,2):  49 y(1,3,2) - u(3,1,2) >= -0
MCLin10(3,1,2):  -35 y(1,3,2) + v(3,1,2) - u(3,1,2) >= -35
MCLinV(2,3,0):  x(2,0) - v(2,3,0) - x(3,0) = 2
MCLinV(3,2,0):  - x(2,0) - v(3,2,0) + x(3,0) = 9
MCLin1(2,3,0):  u(2,3,0) >= -0
MCLin2(2,3,0):  -45 y(3,2,0) - u(2,3,0) <= -0
MCLin3(2,3,0):  38 y(3,2,0) + v(2,3,0) - u(2,3,0) <= 38
MCLin4(2,3,0):  38 y(3,2,0) - u(2,3,0) >= -0
MCLin5(2,3,0):  -45 y(3,2,0) + v(2,3,0) - u(2,3,0) >= -45
MCLin6(3,2,0):  u(3,2,0) >= -0
MCLin7(3,2,0):  -49 y(2,3,0) - u(3,2,0) <= -0
MCLin8(3,2,0):  34 y(2,3,0) + v(3,2,0) - u(3,2,0) <= 34
MCLin9(3,2,0):  34 y(2,3,0) - u(3,2,0) >= -0
MCLin10(3,2,0):  -49 y(2,3,0) + v(3,2,0) - u(3,2,0) >= -49
MCLinV(2,3,1):  x(2,1) - v(2,3,1) - x(3,1) = 4
MCLinV(3,2,1):  - x(2,1) - v(3,2,1) + x(3,1) = 1
MCLin1(2,3,1):  u(2,3,1) >= -0
MCLin2(2,3,1):  -34 y(3,2,1) - u(2,3,1) <= -0
MCLin3(2,3,1):  49 y(3,2,1) + v(2,3,1) - u(2,3,1) <= 49
MCLin4(2,3,1):  49 y(3,2,1) - u(2,3,1) >= -0
MCLin5(2,3,1):  -34 y(3,2,1) + v(2,3,1) - u(2,3,1) >= -34
MCLin6(3,2,1):  u(3,2,1) >= -0
MCLin7(3,2,1):  -54 y(2,3,1) - u(3,2,1) <= -0
MCLin8(3,2,1):  29 y(2,3,1) + v(3,2,1) - u(3,2,1) <= 29
MCLin9(3,2,1):  29 y(2,3,1) - u(3,2,1) >= -0
MCLin10(3,2,1):  -54 y(2,3,1) + v(3,2,1) - u(3,2,1) >= -54
MCLinV(2,3,2):  x(2,2) - v(2,3,2) - x(3,2) = 4
MCLinV(3,2,2):  - x(2,2) - v(3,2,2) + x(3,2) = 5
MCLin1(2,3,2):  u(2,3,2) >= -0
MCLin2(2,3,2):  -54 y(3,2,2) - u(2,3,2) <= -0
MCLin3(2,3,2):  29 y(3,2,2) + v(2,3,2) - u(2,3,2) <= 29
MCLin4(2,3,2):  29 y(3,2,2) - u(2,3,2) >= -0
MCLin5(2,3,2):  -54 y(3,2,2) + v(2,3,2) - u(2,3,2) >= -54
MCLin6(3,2,2):  u(3,2,2) >= -0
MCLin7(3,2,2):  -38 y(2,3,2) - u(3,2,2) <= -0
MCLin8(3,2,2):  45 y(2,3,2) + v(3,2,2) - u(3,2,2) <= 45
MCLin9(3,2,2):  45 y(2,3,2) - u(3,2,2) >= -0
MCLin10(3,2,2):  -38 y(2,3,2) + v(3,2,2) - u(3,2,2) >= -38
makespan(0):  C - x(0,2) >= 7
makespan(1):  C - x(1,1) >= 8
makespan(2):  C - x(2,1) >= 1
makespan(3):  C - x(3,2) >= 4
cut_clique_0(0123,0):  0.02195 x(0,0) + 0.01205 x(1,0) + 0.06586 x(2,0) + 0.01464 x(3,0) >= 1
cut_clique_0(023,0):  0.02921 x(0,0) + 0.08764 x(2,0) + 0.00899 x(3,0) >= 1
cut_clique_0(012,0):  0.03008 x(0,0) + 0.00752 x(1,0) + 0.09023 x(2,0) >= 1
cut_clique_0(013,0):  0.08054 x(0,0) + 0.03356 x(1,0) + 0.05369 x(3,0) >= 1
cut_clique_0(123,0):  0.01836 x(1,0) + 0.10518 x(2,0) + 0.02337 x(3,0) >= 1
cut_clique_0(0123,1):  0.25000 x(0,1) + 0.20000 x(3,1) >= 1
cut_clique_0(013,1):  0.25000 x(0,1) + 0.20000 x(3,1) >= 1
cut_clique_0(023,1):  0.25000 x(0,1) + 0.20000 x(3,1) >= 1
cut_clique_0(0123,2):  0.20000 x(1,2) + x(2,2) >= 1
cut_clique_0(123,2):  0.20000 x(1,2) + x(2,2) >= 1
cut_clique_0(013,2):  0.08824 x(0,2) + 0.01961 x(3,2) >= 1
cut_clique_0(012,2):  0.20000 x(1,2) + x(2,2) >= 1
cut_clique_0(023,2):  0.08824 x(0,2) + 0.01961 x(3,2) >= 1
cut_clique_0:  0.04348 x(1,0) + 0.07826 x(2,0) + 0.48696 x(2,2) >= 1
cut_clique_1:  0.01744 x(0,0) + 0.02907 x(1,0) + 0.05233 x(2,0) + 0.39535 x(2,2) >= 1
cut_clique_2:  0.01518 x(0,0) + 0.04555 x(2,0) + 0.01189 x(0,1) + 0.02899 x(1,1) + 0.00138 x(2,1) + 0.00951 x(3,1) + 0.16702 x(2,2) >= 1
Bounds
 0 <= C <= 54
 5 <= x(0,0) <= 44
 0 <= y(0,1,0) <= 1
 0 <= y(1,0,0) <= 1
 -41 <= v(0,1,0) <= 38
 -46 <= v(1,0,0) <= 33
 -540 <= u(0,1,0)
 -540 <= u(1,0,0)
 0 <= y(0,2,0) <= 1
 0 <= y(2,0,0) <= 1
 -48 <= v(0,2,0) <= 30
 -42 <= v(2,0,0) <= 36
 -540 <= u(0,2,0)
 -540 <= u(2,0,0)
 0 <= y(0,3,0) <= 1
 0 <= y(3,0,0) <= 1
 -45 <= v(0,3,0) <= 38
 -43 <= v(3,0,0) <= 40
 -540 <= u(0,3,0)
 -540 <= u(3,0,0)
 1 <= x(1,0) <= 41
 0 <= y(1,2,0) <= 1
 0 <= y(2,1,0) <= 1
 -52 <= v(1,2,0) <= 27
 -41 <= v(2,1,0) <= 38
 -540 <= u(1,2,0)
 -540 <= u(2,1,0)
 0 <= y(1,3,0) <= 1
 0 <= y(3,1,0) <= 1
 -49 <= v(1,3,0) <= 35
 -42 <= v(3,1,0) <= 42
 -540 <= u(1,3,0)
 -540 <= u(3,1,0)
 5 <= x(2,0) <= 44
 0 <= y(2,3,0) <= 1
 0 <= y(3,2,0) <= 1
 -45 <= v(2,3,0) <= 38
 -49 <= v(3,2,0) <= 34
 -540 <= u(2,3,0)
 -540 <= u(3,2,0)
 4 <= x(3,0) <= 48
 0 <= x(0,1) <= 39
 0 <= y(0,1,1) <= 1
 0 <= y(1,0,1) <= 1
 -54 <= v(0,1,1) <= 25
 -38 <= v(1,0,1) <= 41
 -540 <= u(0,1,1)
 -540 <= u(1,0,1)
 0 <= y(0,2,1) <= 1
 0 <= y(2,0,1) <= 1
 -54 <= v(0,2,1) <= 24
 -30 <= v(2,0,1) <= 48
 -540 <= u(0,2,1)
 -540 <= u(2,0,1)
 0 <= y(0,3,1) <= 1
 0 <= y(3,0,1) <= 1
 -48 <= v(0,3,1) <= 35
 -44 <= v(3,0,1) <= 39
 -540 <= u(0,3,1)
 -540 <= u(3,0,1)
 6 <= x(1,1) <= 46
 0 <= y(1,2,1) <= 1
 0 <= y(2,1,1) <= 1
 -48 <= v(1,2,1) <= 31
 -40 <= v(2,1,1) <= 39
 -540 <= u(1,2,1)
 -540 <= u(2,1,1)
 0 <= y(1,3,1) <= 1
 0 <= y(3,1,1) <= 1
 -42 <= v(1,3,1) <= 42
 -54 <= v(3,1,1) <= 30
 -540 <= u(1,3,1)
 -540 <= u(3,1,1)
 14 <= x(2,1) <= 53
 0 <= y(2,3,1) <= 1
 0 <= y(3,2,1) <= 1
 -34 <= v(2,3,1) <= 49
 -54 <= v(3,2,1) <= 29
 -540 <= u(2,3,1)
 -540 <= u(3,2,1)
 0 <= x(3,1) <= 44
 8 <= x(0,2) <= 47
 0 <= y(0,1,2) <= 1
 0 <= y(1,0,2) <= 1
 -33 <= v(0,1,2) <= 46
 -54 <= v(1,0,2) <= 25
 -540 <= u(0,1,2)
 -540 <= u(1,0,2)
 0 <= y(0,2,2) <= 1
 0 <= y(2,0,2) <= 1
 -36 <= v(0,2,2) <= 42
 -54 <= v(2,0,2) <= 24
 -540 <= u(0,2,2)
 -540 <= u(2,0,2)
 0 <= y(0,3,2) <= 1
 0 <= y(3,0,2) <= 1
 -46 <= v(0,3,2) <= 37
 -48 <= v(3,0,2) <= 35
 -540 <= u(0,3,2)
 -540 <= u(3,0,2)
 0 <= x(1,2) <= 40
 0 <= y(1,2,2) <= 1
 0 <= y(2,1,2) <= 1
 -44 <= v(1,2,2) <= 35
 -41 <= v(2,1,2) <= 38
 -540 <= u(1,2,2)
 -540 <= u(2,1,2)
 0 <= y(1,3,2) <= 1
 0 <= y(3,1,2) <= 1
 -54 <= v(1,3,2) <= 30
 -35 <= v(3,1,2) <= 49
 -540 <= u(1,3,2)
 -540 <= u(3,1,2)
 0 <= x(2,2) <= 39
 0 <= y(2,3,2) <= 1
 0 <= y(3,2,2) <= 1
 -54 <= v(2,3,2) <= 29
 -38 <= v(3,2,2) <= 45
 -540 <= u(2,3,2)
 -540 <= u(3,2,2)
 6 <= x(3,2) <= 50
Integers
C x(0,0) y(0,1,0) y(1,0,0) v(0,1,0) v(1,0,0) u(0,1,0) u(1,0,0) y(0,2,0) y(2,0,0) 
v(0,2,0) v(2,0,0) u(0,2,0) u(2,0,0) y(0,3,0) y(3,0,0) v(0,3,0) v(3,0,0) u(0,3,0) u(3,0,0) 
x(1,0) y(1,2,0) y(2,1,0) v(1,2,0) v(2,1,0) u(1,2,0) u(2,1,0) y(1,3,0) y(3,1,0) v(1,3,0) 
v(3,1,0) u(1,3,0) u(3,1,0) x(2,0) y(2,3,0) y(3,2,0) v(2,3,0) v(3,2,0) u(2,3,0) u(3,2,0) 
x(3,0) x(0,1) y(0,1,1) y(1,0,1) v(0,1,1) v(1,0,1) u(0,1,1) u(1,0,1) y(0,2,1) y(2,0,1) 
v(0,2,1) v(2,0,1) u(0,2,1) u(2,0,1) y(0,3,1) y(3,0,1) v(0,3,1) v(3,0,1) u(0,3,1) u(3,0,1) 
x(1,1) y(1,2,1) y(2,1,1) v(1,2,1) v(2,1,1) u(1,2,1) u(2,1,1) y(1,3,1) y(3,1,1) v(1,3,1) 
v(3,1,1) u(1,3,1) u(3,1,1) x(2,1) y(2,3,1) y(3,2,1) v(2,3,1) v(3,2,1) u(2,3,1) u(3,2,1) 
x(3,1) x(0,2) y(0,1,2) y(1,0,2) v(0,1,2) v(1,0,2) u(0,1,2) u(1,0,2) y(0,2,2) y(2,0,2) 
v(0,2,2) v(2,0,2) u(0,2,2) u(2,0,2) y(0,3,2) y(3,0,2) v(0,3,2) v(3,0,2) u(0,3,2) u(3,0,2) 
x(1,2) y(1,2,2) y(2,1,2) v(1,2,2) v(2,1,2) u(1,2,2) u(2,1,2) y(1,3,2) y(3,1,2) v(1,3,2) 
v(3,1,2) u(1,3,2) u(3,1,2) x(2,2) y(2,3,2) y(3,2,2) v(2,3,2) v(3,2,2) u(2,3,2) u(3,2,2) 
x(3,2) 
End
